50
11335

374 137
931 465
461 366
788 665
32 719
537 709
64 359
606 628
379 573
431 188
653 32
546 95
567 633
248 770
35 267
566 584
525 180
691 384
860 463
915 126
536 143
859 407
704 692
483 636
385 133
685 977
822 562
46 483
941 35
770 677
929 90
356 455
152 39
429 697
902 937
110 449
299 72
98 633
71 660
246 628
267 1000
862 338
681 677
70 62
306 643
309 627
458 727
452 665
895 591
606 59
